1798766
29,40,63,10,65,25,54,33,45,42,21,30,9,17,56,32,51,13,43,49,27,57,8,16,26,44,64,47,1,15,58,35,14,7,67,52,36,61,38,50,34,62,20,37,6,66,2,41,11,0,53,12,19,3,46,23,60,31,55,39,4,28,59,18,48,22,5,24,29